words_hard_train/3526.qaiger
aag 18 7 0 1 11
2
4
8
12
16
20
22
37
6 3 4
10 6 8
14 10 12
18 15 16
24 20 22
26 19 24
28 5 9
30 28 2
32 30 13
34 33 17
36 27 35
i0 1 x1[7]
i1 2 y1[1]
i2 2 y1[2]
i3 2 y1[3]
i4 2 y1[4]
i5 1 x1[6]
i6 2 y1[0]
o0 bv[0]
c
simplified
  <
    subtract
      unary minus
        1
      >> 3
        1 x1
    << 3
      2 y1
