words_hard_train/3526.qaiger.qdimacs
p cnf 18 34
a 1 10 0
e 2 3 4 5 6 7 8 9 11 12 13 14 15 16 17 18 0
1 -2 3 0
-1 -3 0
2 -3 0
-3 -4 5 0
3 -5 0
4 -5 0
-5 -6 7 0
5 -7 0
6 -7 0
7 -8 9 0
-7 -9 0
8 -9 0
-10 -11 12 0
10 -12 0
11 -12 0
9 -12 13 0
-9 -13 0
12 -13 0
2 4 14 0
-2 -14 0
-4 -14 0
-14 -1 15 0
14 -15 0
1 -15 0
-15 6 16 0
15 -16 0
-6 -16 0
16 8 17 0
-16 -17 0
-8 -17 0
13 17 18 0
-13 -18 0
-17 -18 0
-18 0
